p cnf 7230 15
2444 2445 0
1798 -2445 0
-1798 -2444 0
2442 2443 0
1796 -2443 0
-1796 -2442 0
-2439 2441 0
2440 -2441 0
2438 -2440 0
-1794 2439 0
1794 -2438 0
-1800 2447 0
1800 -2447 0
-2436 2437 0
2436 -2437 0
